Set parameter TSPort to value 51199
Set parameter TokenServer to value "open-license1.lanl.gov"
Set parameter TimeLimit to value 4096
Set parameter Threads to value 1
Gurobi Optimizer version 10.0.3 build v10.0.3rc0 (linux64)

CPU model: Intel(R) Xeon(R) CPU E5-2695 v4 @ 2.10GHz, instruction set [SSE2|AVX|AVX2]
Thread count: 36 physical cores, 72 logical processors, using up to 1 threads

Optimize a model with 0 rows, 2897 columns and 0 nonzeros
Model fingerprint: 0xc20d8367
Model has 13437 quadratic objective terms
Variable types: 0 continuous, 2897 integer (2897 binary)
Coefficient statistics:
  Matrix range     [0e+00, 0e+00]
  Objective range  [2e+00, 3e+01]
  QObjective range [8e+00, 8e+00]
  Bounds range     [1e+00, 1e+00]
  RHS range        [0e+00, 0e+00]
Found heuristic solution: objective 0.0000000
Found heuristic solution: objective -4874.000000
Found heuristic solution: objective -17870.00000
Found heuristic solution: objective -17922.00000
Presolve removed 0 rows and 4 columns
Presolve time: 0.38s
Presolved: 13433 rows, 16326 columns, 40299 nonzeros
Variable types: 0 continuous, 16326 integer (16326 binary)

Root relaxation: objective -2.517100e+04, 4011 iterations, 0.06 seconds (0.03 work units)

    Nodes    |    Current Node    |     Objective Bounds      |     Work
 Expl Unexpl |  Obj  Depth IntInf | Incumbent    BestBd   Gap | It/Node Time

     0     0 -25171.000    0 2893 -17922.000 -25171.000  40.4%     -    0s
     0     0 -23525.000    0 3708 -17922.000 -23525.000  31.3%     -    1s
     0     0 -23309.333    0 3832 -17922.000 -23309.333  30.1%     -    1s
     0     0 -23297.333    0 3842 -17922.000 -23297.333  30.0%     -    1s
     0     0 -23149.667    0 3925 -17922.000 -23149.667  29.2%     -    2s
     0     0 -23149.667    0 3897 -17922.000 -23149.667  29.2%     -    2s
     0     2 -23149.667    0 3892 -17922.000 -23149.667  29.2%     -    3s
    77    79 -22783.000   39 4256 -17922.000 -23138.667  29.1%   115    5s
   367   369 -21512.500  184 5050 -17922.000 -23138.667  29.1%  82.6   10s
   638   640 -20483.500  319 5456 -17922.000 -23138.667  29.1%  77.3   15s
   864   866 -19724.500  433 5635 -17922.000 -23138.667  29.1%  73.2   21s
   963   965 -19413.500  483 5604 -17922.000 -23138.667  29.1%  70.8   25s
H 1144  1144                    -17924.00000 -23138.667  29.1%  67.0   27s
H 1274  1274                    -17928.00000 -23138.667  29.1%  64.7   29s
  1278  1280 -18651.500  641 5443 -17928.000 -23138.667  29.1%  64.7   30s
H 1352  1352                    -17936.00000 -23138.667  29.0%  63.3   31s
H 1430  1430                    -17940.00000 -23138.667  29.0%  61.8   32s
H 1508  1508                    -17950.00000 -23138.667  28.9%  60.5   34s
  1534  1536 -18091.500  771 5072 -17950.000 -23138.667  28.9%  60.1   35s
H 1560  1560                    -17954.00000 -23138.667  28.9%  59.5   35s
H 1586  1586                    -17958.00000 -23138.667  28.8%  59.1   35s
H 1615  1605                    -17970.00000 -23138.667  28.8%  58.6   36s
  1625  1603 -22081.667  117 2892 -17970.000 -23138.667  28.8%  58.3   40s
  1629  1606 -18414.500  695 4801 -17970.000 -21909.650  21.9%  58.2   45s
  1637  1611 -21490.990  103 5374 -17970.000 -21490.990  19.6%  57.9   57s
  1638  1612 -19143.500  529 5821 -17970.000 -21365.129  18.9%  57.8   71s
  1639  1613 -21328.877  134 6030 -17970.000 -21328.877  18.7%  57.8   79s
  1640  1613 -18799.500  610 6087 -17970.000 -21320.579  18.6%  57.8   83s
  1642  1615 -20959.500  253 6226 -17970.000 -21315.205  18.6%  57.7   85s
  1649  1619 -19827.500  419 6810 -17970.000 -20990.914  16.8%  57.4  143s
  1650  1620 -20889.960  197 7217 -17970.000 -20889.960  16.2%  57.4  197s
  1651  1621 -18137.000  761 7442 -17970.000 -20862.452  16.1%  57.4  233s
  1652  1621 -18946.500  570 7602 -17970.000 -20853.931  16.0%  57.3  244s
  1653  1622 -18916.500  580 7687 -17970.000 -20851.201  16.0%  57.3  250s
  1655  1623 -18925.500  576 7807 -17970.000 -20849.244  16.0%  57.2  256s
  1658  1625 -19272.500  506 7896 -17970.000 -20848.618  16.0%  57.1  260s
  1662  1628 -19836.500  417 8348 -17970.000 -20623.523  14.8%  57.0  371s
  1663  1629 -20370.500  336 8822 -17970.000 -20543.423  14.3%  57.0  466s
  1664  1629 -20513.173  131 9134 -17970.000 -20513.173  14.2%  56.9  514s
  1665  1630 -18649.500  642 9366 -17970.000 -20500.675  14.1%  56.9  549s
  1666  1631 -20497.027  150 9549 -17970.000 -20497.027  14.1%  56.9  565s
  1667  1631 -18248.000  733 9665 -17970.000 -20495.256  14.1%  56.8  575s
  1668  1632 -20494.313  170 9786 -17970.000 -20494.313  14.0%  56.8  583s
  1669  1633 -20031.500  386 9805 -17970.000 -20493.949  14.0%  56.8  587s
  1670  1633 -18065.500  782 9828 -17970.000 -20493.760  14.0%  56.7  590s
  1673  1635 -20493.601  313 9886 -17970.000 -20493.601  14.0%  56.6  595s
  1676  1637 -20316.980  241 10043 -17970.000 -20316.980  13.1%  56.5  784s
  1677  1638 -20261.908    8 10528 -17970.000 -20261.908  12.8%  56.5  929s
  1678  1639 -20077.500  379 10817 -17970.000 -20240.244  12.6%  56.5 1007s
  1679  1639 -20234.163   62 10989 -17970.000 -20234.163  12.6%  56.4 1044s
  1680  1640 -20232.072  103 11152 -17970.000 -20232.072  12.6%  56.4 1063s
  1681  1641 -20089.500  376 11217 -17970.000 -20231.387  12.6%  56.4 1071s
  1682  1641 -20231.100  234 11225 -17970.000 -20231.100  12.6%  56.3 1077s
  1683  1642 -20230.967  158 11250 -17970.000 -20230.967  12.6%  56.3 1081s
  1687  1645 -18999.500  556 11309 -17970.000 -20230.905  12.6%  56.2 1088s
  1688  1645 -20093.616  127 11729 -17970.000 -20093.616  11.8%  56.1 1340s
  1689  1646 -19043.500  548 12212 -17970.000 -20062.011  11.6%  56.1 1497s
  1690  1647 -18917.500  585 12426 -17970.000 -20053.443  11.6%  56.1 1566s
  1691  1647 -20050.260  148 12559 -17970.000 -20050.260  11.6%  56.0 1600s
  1692  1648 -20048.984  121 12533 -17970.000 -20048.984  11.6%  56.0 1618s
  1693  1649 -18916.500  580 12606 -17970.000 -20048.378  11.6%  56.0 1628s
  1694  1649 -19893.500  408 12590 -17970.000 -20048.128  11.6%  55.9 1636s
  1695  1650 -19764.500  428 12693 -17970.000 -20048.030  11.6%  55.9 1640s
  1698  1652 -18375.500  703 12725 -17970.000 -20047.992  11.6%  55.8 1645s
  1699  1653 -18965.500  565 12754 -17970.000 -19980.096  11.2%  55.8 1851s
  1700  1653 -18944.500  573 13153 -17970.000 -19965.715  11.1%  55.7 1975s
  1701  1654 -19963.158  295 13185 -17970.000 -19963.158  11.1%  55.7 2011s
  1702  1655 -19048.500  547 13229 -17970.000 -19962.394  11.1%  55.7 2028s
  1703  1655 -19962.133  332 13298 -17970.000 -19962.133  11.1%  55.6 2040s
  1705  1657 -19962.028   52 13331 -17970.000 -19962.028  11.1%  55.6 2046s
  1707  1658 -18471.500  683 13354 -17970.000 -19962.021  11.1%  55.5 2051s
  1708  1659 -19901.141   32 13288 -17970.000 -19901.141  10.7%  55.5 2283s
  1709  1659 -19887.728   84 13520 -17970.000 -19887.728  10.7%  55.4 2405s
  1710  1660 -19885.482   57 13603 -17970.000 -19885.482  10.7%  55.4 2453s
  1711  1661 -19884.854  116 13650 -17970.000 -19884.854  10.7%  55.4 2469s
  1712  1661 -18464.500  684 13659 -17970.000 -19884.597  10.7%  55.3 2483s
  1713  1662 -19884.476  274 13674 -17970.000 -19884.476  10.7%  55.3 2491s
  1715  1663 -19884.439  191 13692 -17970.000 -19884.439  10.7%  55.2 2496s
  1716  1664 -19694.500  438 13702 -17970.000 -19884.436  10.7%  55.2 2500s
  1717  1665 -19840.672  393 13587 -17970.000 -19840.672  10.4%  55.2 2728s
  1718  1665 -19831.968  307 13734 -17970.000 -19831.968  10.4%  55.1 2853s
  1719  1666 -19119.500  534 13794 -17970.000 -19830.121  10.4%  55.1 2900s
  1720  1667 -19829.479  176 13838 -17970.000 -19829.479  10.3%  55.1 2924s
  1721  1667 -19829.252   76 13867 -17970.000 -19829.252  10.3%  55.0 2932s
  1722  1668 -18298.000  721 13887 -17970.000 -19829.161  10.3%  55.0 2940s
  1724  1669 -19829.085  136 13901 -17970.000 -19829.085  10.3%  54.9 2946s
  1725  1670 -19829.081  117 13911 -17970.000 -19829.081  10.3%  54.9 2951s
  1726  1671 -19794.271  331 13749 -17970.000 -19794.271  10.2%  54.9 3161s
  1727  1671 -18093.500  773 13878 -17970.000 -19786.320  10.1%  54.9 3282s
  1728  1672 -19784.869  360 13899 -17970.000 -19784.869  10.1%  54.8 3326s
  1729  1673 -18414.500  695 13948 -17970.000 -19784.489  10.1%  54.8 3344s
  1730  1673 -19784.342  374 13974 -17970.000 -19784.342  10.1%  54.8 3352s
  1731  1674 -19784.239  193 13970 -17970.000 -19784.239  10.1%  54.7 3357s
  1732  1675 -18708.500  629 14009 -17970.000 -19784.192  10.1%  54.7 3362s
  1734  1676 -19784.175   81 14019 -17970.000 -19784.175  10.1%  54.6 3367s
  1735  1677 -19759.772  183 13874 -17970.000 -19759.772  10.0%  54.6 3559s
  1736  1677 -19377.500  489 13961 -17970.000 -19753.702  9.93%  54.6 3658s
  1737  1678 -19752.596  103 14014 -17970.000 -19752.596  9.92%  54.5 3687s
  1738  1679 -19143.500  529 14064 -17970.000 -19752.232  9.92%  54.5 3700s
  1739  1679 -19752.121  134 14109 -17970.000 -19752.121  9.92%  54.5 3707s
  1740  1680 -18799.500  610 14113 -17970.000 -19752.081  9.92%  54.4 3710s
  1742  1681 -19752.069  253 14122 -17970.000 -19752.069  9.92%  54.4 3715s
  1743  1682 -19731.914  227 13986 -17970.000 -19731.914  9.80%  54.3 3917s
  1744  1683 -19096.500  539 14055 -17970.000 -19727.311  9.78%  54.3 4014s
  1745  1683 -18050.500  786 14134 -17970.000 -19726.093  9.77%  54.3 4047s
  1746  1684 -19725.800   76 14153 -17970.000 -19725.800  9.77%  54.3 4061s
  1747  1685 -19725.672  286 14193 -17970.000 -19725.672  9.77%  54.2 4068s
  1748  1685 -19725.607  402 14178 -17970.000 -19725.607  9.77%  54.2 4073s
  1749  1686 -19725.595  419 14192 -17970.000 -19725.595  9.77%  54.2 4075s

Cutting planes:
  Gomory: 135
  MIR: 533
  Flow cover: 4940
  Zero half: 1788
  Mod-K: 119
  RLT: 590
  BQP: 818

Explored 1750 nodes (2327266 simplex iterations) in 4096.03 seconds (5996.95 work units)
Thread count was 1 (of 72 available processors)

Solution count 10: -17970 -17958 -17954 ... -17870

Time limit reached
Best objective -1.797000000000e+04, best bound -1.972400000000e+04, gap 9.7607%

User-callback calls 16361, time in user-callback 0.08 sec

BQP_SOLUTION, 2897, 13437, -6236.000000, 4096.030479, -1, 1, 1, -1, 1, -1, 1, -1, 1, -1, 1, -1, 1, -1, 1, -1, -1, -1, 1, -1, 1, 1, -1, 1, -1, -1, 1, 1, -1, -1, -1, -1, 1, 1, 1, -1, -1, 1, -1, 1, -1, -1, -1, 1, 1, -1, -1, -1, 1, -1, -1, -1, -1, 1, -1, 1, 1, -1, -1, 1, 1, -1, 1, -1, -1, -1, 1, -1, -1, -1, 1, 1, 1, -1, -1, -1, 1, 1, -1, -1, -1, 1, 1, 1, 1, -1, -1, 1, 1, -1, 1, -1, 1, -1, -1, 1, -1, -1, 1, 1, -1, -1, -1, 1, 1, -1, -1, -1, 1, -1, 1, -1, -1, 1, 1, 1, 1, -1, -1, 1, 1, 1, -1, 1, -1, 1, 1, -1, 1, -1, -1, 1, 1, -1, -1, -1, 1, 1, 1, -1, 1, -1, -1, -1, -1, -1, 1, 1, 1, 1, -1, 1, 1, -1, 1, 1, -1, 1, 1, 1, 1, 1, -1, 1, -1, -1, 1, 1, 1, 1, 1, 1, -1, -1, 1, -1, 1, -1, 1, 1, 1, 1, 1, -1, 1, 1, -1, 1, -1, 1, 1, 1, 1, 1, -1, 1, 1, 1, 1, -1, 1, 1, -1, 1, -1, -1, -1, 1, 1, -1, 1, 1, 1, 1, 1, -1, -1, 1, 1, -1, -1, 1, -1, 1, 1, -1, 1, 1, -1, 1, 1, 1, -1, 1, 1, 1, 1, 1, -1, 1, 1, -1, -1, 1, -1, -1, 1, 1, 1, 1, -1, 1, 1, 1, 1, -1, 1, 1, 1, 1, 1, -1, 1, 1, 1, -1, -1, 1, 1, 1, 1, -1, -1, 1, -1, 1, 1, 1, 1, 1, -1, 1, -1, 1, 1, 1, 1, 1, 1, -1, 1, -1, 1, 1, -1, -1, 1, -1, 1, 1, -1, -1, 1, 1, -1, 1, 1, -1, 1, 1, -1, -1, 1, -1, 1, 1, -1, 1, -1, 1, 1, 1, -1, 1, -1, 1, 1, -1, 1, 1, 1, 1, 1, -1, -1, -1, 1, 1, -1, 1, 1, 1, 1, 1, -1, -1, -1, 1, 1, -1, 1, 1, 1, 1, -1, 1, -1, 1, 1, 1, -1, 1, -1, 1, 1, 1, -1, -1, 1, -1, 1, -1, 1, 1, 1, 1, -1, 1, 1, -1, 1, 1, -1, -1, -1, 1, 1, -1, -1, -1, 1, -1, 1, 1, -1, 1, 1, 1, -1, -1, -1, 1, 1, -1, -1, 1, 1, 1, 1, -1, 1, -1, -1, 1, -1, 1, 1, 1, 1, -1, 1, -1, -1, -1, 1, -1, -1, 1, 1, 1, -1, 1, -1, 1, 1, -1, 1, -1, 1, -1, 1, -1, 1, 1, -1, 1, 1, 1, -1, 1, -1, 1, -1, 1, 1, 1, 1, 1, 1, -1, -1, -1, 1, -1, 1, 1, -1, 1, -1, 1, -1, 1, 1, 1, -1, 1, 1, 1, 1, -1, 1, -1, -1, -1, 1, -1, 1, 1, 1, 1, -1, 1, 1, -1, -1, -1, 1, -1, 1, 1, -1, -1, 1, -1, -1, 1, 1, 1, 1, 1, 1, 1, -1, -1, -1, -1, -1, 1, 1, 1, 1, 1, 1, -1, 1, -1, -1, -1, 1, -1, 1, 1, 1, -1, -1, 1, -1, 1, -1, 1, 1, 1, 1, 1, 1, -1, 1, -1, 1, 1, 1, 1, 1, 1, 1, -1, -1, 1, -1, 1, -1, 1, 1, 1, 1, -1, 1, -1, 1, -1, 1, 1, -1, 1, -1, 1, 1, -1, -1, 1, -1, -1, 1, 1, -1, 1, 1, 1, -1, -1, 1, -1, 1, 1, 1, 1, 1, -1, 1, 1, -1, 1, -1, -1, 1, -1, 1, -1, -1, 1, -1, -1, 1, -1, -1, 1, 1, 1, -1, 1, 1, 1, -1, -1, 1, -1, -1, -1, 1, 1, -1, 1, 1, -1, 1, 1, -1, 1, -1, -1, 1, -1, -1, -1, -1, 1, 1, -1, 1, -1, 1, -1, 1, 1, 1, -1, 1, 1, -1, 1, -1, 1, -1, 1, 1, -1, 1, -1, 1, -1, -1, -1, 1, 1, -1, 1, -1, 1, 1, 1, -1, -1, -1, -1, 1, -1, -1, 1, -1, 1, -1, 1, -1, 1, 1, 1, -1, 1, -1, -1, -1, 1, -1, -1, 1, 1, 1, -1, -1, 1, -1, 1, 1, 1, -1, -1, 1, 1, 1, -1, 1, -1, 1, -1, -1, -1, -1, 1, 1, 1, -1, -1, -1, 1, 1, -1, -1, 1, 1, 1, -1, -1, 1, -1, 1, -1, 1, -1, -1, 1, 1, -1, -1, -1, -1, 1, 1, 1, -1, -1, 1, -1, 1, 1, -1, 1, 1, -1, 1, 1, -1, -1, 1, 1, -1, -1, 1, -1, 1, 1, 1, -1, -1, 1, 1, -1, 1, -1, 1, -1, 1, -1, 1, 1, 1, -1, -1, 1, -1, 1, 1, 1, -1, -1, 1, 1, -1, -1, -1, -1, 1, 1, -1, -1, 1, 1, 1, 1, -1, 1, -1, -1, -1, -1, 1, -1, -1, 1, -1, 1, -1, 1, 1, 1, -1, 1, -1, -1, 1, 1, -1, 1, 1, -1, -1, 1, -1, 1, -1, 1, -1, -1, 1, -1, 1, -1, -1, -1, 1, 1, 1, -1, 1, 1, 1, -1, 1, 1, -1, -1, 1, 1, -1, 1, -1, 1, 1, -1, 1, 1, -1, 1, 1, -1, -1, 1, 1, -1, 1, 1, 1, -1, 1, 1, -1, 1, 1, 1, -1, 1, 1, 1, -1, 1, 1, -1, 1, 1, -1, 1, 1, 1, 1, -1, 1, -1, 1, 1, 1, 1, -1, 1, 1, 1, -1, 1, 1, -1, 1, -1, 1, -1, 1, 1, -1, -1, 1, -1, 1, -1, 1, -1, 1, 1, 1, 1, -1, 1, -1, -1, 1, 1, -1, 1, 1, 1, -1, -1, -1, -1, -1, 1, 1, -1, 1, 1, 1, 1, -1, 1, -1, 1, -1, 1, 1, 1, 1, 1, 1, -1, 1, -1, 1, -1, 1, -1, -1, 1, 1, -1, -1, 1, -1, -1, -1, 1, -1, 1, -1, -1, 1, -1, -1, -1, -1, -1, 1, 1, 1, 1, 1, 1, -1, 1, -1, -1, 1, 1, 1, 1, -1, 1, 1, -1, -1, -1, -1, -1, 1, 1, -1, -1, -1, -1, 1, 1, -1, 1, -1, 1, 1, -1, 1, -1, -1, 1, -1, -1, -1, -1, -1, 1, -1, -1, -1, 1, -1, 1, 1, -1, -1, 1, -1, 1, -1, -1, 1, 1, -1, -1, 1, -1, 1, -1, 1, 1, -1, 1, -1, -1, 1, -1, -1, 1, -1, -1, -1, -1, 1, -1, -1, -1, -1, -1, 1, 1, -1, -1, 1, -1, 1, -1, 1, 1, -1, -1, 1, -1, 1, -1, -1, -1, -1, 1, -1, -1, 1, 1, -1, 1, -1, 1, 1, -1, 1, -1, -1, -1, 1, -1, -1, -1, 1, 1, -1, 1, 1, -1, -1, 1, -1, 1, -1, -1, 1, -1, 1, 1, -1, -1, 1, -1, 1, -1, 1, 1, -1, 1, 1, -1, -1, 1, 1, 1, -1, 1, 1, -1, 1, -1, 1, -1, -1, 1, -1, 1, 1, 1, -1, -1, -1, 1, -1, 1, -1, 1, 1, 1, -1, 1, 1, -1, -1, 1, 1, 1, 1, -1, 1, -1, -1, 1, -1, -1, 1, 1, -1, 1, 1, 1, -1, 1, 1, -1, 1, 1, 1, 1, 1, -1, 1, -1, 1, 1, -1, 1, 1, -1, -1, 1, 1, 1, -1, -1, 1, -1, -1, 1, 1, -1, -1, 1, 1, -1, 1, 1, -1, 1, -1, 1, -1, 1, 1, 1, -1, 1, 1, 1, 1, 1, -1, 1, -1, -1, 1, -1, 1, 1, -1, 1, 1, -1, 1, -1, -1, 1, -1, -1, 1, 1, 1, 1, -1, 1, -1, 1, 1, 1, -1, 1, 1, 1, 1, 1, 1, -1, 1, 1, -1, 1, 1, 1, -1, 1, 1, -1, -1, -1, 1, -1, 1, -1, 1, -1, 1, -1, -1, -1, -1, 1, 1, 1, 1, 1, 1, 1, -1, 1, -1, 1, 1, 1, -1, 1, 1, 1, -1, -1, 1, -1, -1, 1, 1, -1, -1, 1, 1, 1, 1, 1, 1, 1, -1, 1, -1, 1, 1, 1, 1, -1, 1, -1, -1, 1, 1, -1, -1, 1, 1, 1, 1, -1, -1, -1, 1, -1, -1, 1, 1, 1, -1, -1, 1, -1, -1, -1, 1, -1, -1, 1, -1, 1, -1, 1, -1, -1, 1, 1, -1, 1, 1, 1, -1, 1, -1, 1, -1, -1, 1, 1, -1, 1, 1, -1, 1, -1, -1, 1, -1, 1, -1, -1, 1, 1, 1, 1, -1, -1, -1, -1, 1, -1, 1, -1, 1, -1, -1, 1, 1, -1, 1, 1, -1, -1, 1, 1, -1, 1, -1, -1, 1, 1, -1, 1, 1, -1, 1, -1, 1, -1, -1, -1, -1, 1, -1, -1, 1, -1, 1, 1, 1, 1, -1, -1, 1, -1, 1, -1, 1, 1, 1, 1, -1, 1, 1, -1, 1, 1, -1, 1, -1, 1, 1, -1, 1, -1, 1, 1, -1, -1, -1, 1, 1, -1, 1, -1, 1, -1, 1, -1, 1, -1, 1, 1, -1, -1, 1, -1, 1, 1, 1, -1, 1, -1, 1, 1, 1, -1, 1, -1, 1, 1, -1, 1, -1, 1, 1, 1, -1, -1, -1, 1, 1, -1, 1, -1, 1, 1, -1, -1, 1, -1, 1, 1, -1, 1, 1, 1, 1, 1, -1, -1, 1, 1, 1, -1, 1, -1, 1, 1, 1, -1, -1, 1, 1, 1, -1, 1, -1, 1, 1, -1, -1, -1, -1, 1, -1, 1, -1, 1, 1, 1, -1, -1, 1, 1, 1, -1, 1, 1, -1, 1, 1, -1, -1, -1, 1, 1, -1, 1, 1, 1, 1, 1, -1, -1, -1, 1, 1, -1, 1, -1, 1, 1, 1, -1, -1, 1, 1, 1, 1, -1, 1, 1, 1, 1, 1, -1, -1, 1, -1, -1, -1, 1, -1, 1, -1, 1, -1, 1, -1, 1, -1, 1, -1, -1, 1, 1, 1, -1, -1, 1, 1, 1, 1, 1, -1, 1, -1, 1, 1, -1, -1, 1, 1, -1, 1, -1, 1, 1, -1, 1, -1, -1, 1, 1, 1, 1, -1, 1, -1, 1, -1, 1, -1, 1, 1, -1, 1, 1, -1, 1, -1, 1, -1, -1, -1, 1, 1, 1, -1, 1, 1, 1, -1, 1, -1, 1, -1, 1, -1, -1, 1, -1, -1, -1, 1, -1, -1, -1, 1, 1, -1, 1, 1, -1, 1, 1, 1, -1, 1, -1, 1, -1, 1, 1, 1, -1, -1, -1, 1, 1, -1, -1, 1, 1, -1, -1, 1, -1, -1, 1, -1, -1, -1, -1, 1, -1, -1, 1, -1, -1, 1, 1, 1, -1, 1, 1, -1, -1, 1, -1, -1, -1, 1, -1, -1, -1, 1, -1, -1, 1, -1, -1, 1, -1, -1, 1, -1, 1, -1, 1, 1, -1, 1, 1, -1, 1, -1, -1, 1, 1, -1, 1, -1, 1, -1, 1, -1, -1, 1, 1, -1, 1, 1, -1, -1, 1, 1, -1, -1, -1, 1, -1, 1, 1, -1, 1, -1, 1, -1, 1, -1, 1, 1, -1, -1, -1, -1, -1, -1, -1, 1, -1, -1, -1, 1, -1, 1, -1, 1, -1, -1, 1, -1, -1, -1, 1, -1, 1, -1, -1, 1, 1, 1, -1, 1, 1, 1, 1, -1, -1, 1, 1, -1, 1, -1, 1, -1, 1, -1, 1, -1, -1, 1, -1, 1, -1, 1, -1, 1, -1, -1, -1, -1, 1, 1, 1, -1, 1, -1, 1, -1, -1, -1, -1, 1, 1, 1, 1, 1, -1, 1, -1, 1, -1, -1, 1, 1, -1, -1, -1, 1, -1, 1, -1, -1, 1, -1, 1, -1, 1, -1, 1, -1, -1, -1, -1, 1, 1, 1, -1, -1, -1, 1, -1, 1, -1, -1, 1, 1, 1, -1, -1, -1, 1, -1, -1, 1, -1, -1, 1, 1, -1, 1, -1, 1, -1, 1, -1, 1, 1, 1, -1, 1, -1, -1, 1, -1, 1, -1, 1, 1, 1, 1, 1, -1, -1, 1, -1, 1, -1, -1, -1, 1, 1, -1, -1, -1, 1, -1, 1, 1, -1, 1, 1, -1, 1, -1, -1, -1, -1, 1, 1, -1, -1, 1, 1, 1, -1, 1, 1, -1, -1, 1, -1, 1, 1, -1, 1, -1, 1, 1, -1, -1, -1, 1, 1, 1, -1, 1, -1, -1, 1, -1, -1, 1, -1, 1, 1, -1, 1, -1, 1, 1, -1, -1, -1, 1, 1, 1, -1, 1, -1, -1, 1, -1, -1, 1, 1, -1, 1, 1, 1, -1, -1, -1, 1, -1, -1, 1, -1, -1, 1, 1, 1, -1, 1, -1, -1, 1, 1, 1, -1, -1, 1, -1, -1, 1, -1, 1, 1, -1, 1, 1, -1, 1, -1, 1, 1, -1, -1, 1, 1, 1, -1, -1, 1, -1, 1, 1, 1, -1, 1, 1, 1, -1, -1, 1, -1, 1, 1, -1, -1, 1, 1, 1, -1, -1, 1, 1, -1, 1, -1, -1, 1, -1, 1, -1, -1, -1, 1, -1, 1, -1, -1, 1, 1, 1, -1, -1, 1, -1, -1, 1, -1, -1, 1, 1, 1, 1, -1, 1, 1, -1, 1, 1, -1, 1, 1, 1, -1, -1, 1, -1, -1, 1, 1, -1, 1, 1, 1, -1, -1, -1, 1, -1, 1, -1, -1, 1, 1, 1, -1, -1, 1, 1, -1, -1, 1, -1, 1, -1, 1, 1, 1, -1, -1, -1, -1, -1, 1, -1, -1, 1, -1, 1, -1, 1, -1, 1, -1, -1, -1, 1, 1, 1, -1, -1, 1, -1, -1, -1, 1, -1, 1, -1, -1, 1, -1, -1, -1, -1, -1, 1, -1, 1, 1, -1, 1, -1, 1, -1, 1, -1, 1, -1, 1, 1, -1, -1, 1, -1, -1, -1, 1, -1, -1, 1, 1, 1, -1, -1, -1, -1, -1, 1, 1, -1, 1, 1, -1, -1, -1, -1, -1, 1, 1, 1, 1, 1, -1, 1, -1, -1, -1, -1, -1, 1, -1, -1, 1, 1, 1, -1, 1, -1, -1, -1, 1, 1, 1, 1, -1, 1, -1, -1, 1, -1, 1, 1, 1, -1, -1, 1, 1, -1, -1, 1, -1, 1, 1, 1, 1, 1, 1, -1, -1, 1, 1, -1, -1, -1, 1, -1, 1, 1, 1, 1, 1, -1, -1, 1, 1, 1, -1, 1, 1, -1, -1, 1, -1, 1, -1, 1, -1, 1, 1, 1, -1, 1, 1, 1, -1, 1, 1, -1, 1, 1, 1, -1, -1, 1, -1, -1, 1, 1, 1, 1, 1, 1, -1, 1, 1, 1, -1, 1, 1, 1, 1, 1, 1, -1, 1, 1, 1, -1, 1, 1, 1, -1, 1, 1, 1, -1, 1, 1, -1, 1, 1, 1, 1, -1, 1, -1, 1, 1, 1, -1, 1, -1, 1, 1, 1, 1, -1, -1, 1, 1, -1, -1, 1, 1, 1, -1, 1, -1, 1, -1, 1, 1, 1, 1, 1, 1, -1, 1, 1, 1, 1, -1, 1, -1, -1, -1, -1, -1, 1, -1, -1, 1, -1, 1, -1, 1, -1, 1, 1, -1, -1, -1, 1, 1, -1, 1, -1, -1, -1, -1, 1, -1, 1, 1, 1, 1, -1, -1, 1, -1, 1, 1, -1, 1, 1, -1, 1, -1, 1, -1, -1, -1, 1, -1, 1, -1, 1, -1, 1, -1, 1, -1, -1, 1, -1, 1, 1, 1, 1, -1, 1, -1, -1, -1, -1, -1, -1, 1, 1, 1, -1, 1, -1, -1, -1, 1, -1, 1, 1, -1, 1, 1, -1, -1, -1, -1, 1, -1, 1, 1, -1, 1, -1, -1, -1, 1, -1, 1, -1, -1, 1, -1, 1, 1, -1, -1, 1, -1, -1, 1, -1, 1, -1, 1, -1, 1, -1, 1, -1, 1, -1, -1, 1, -1, -1, 1, -1, -1, 1, -1, -1, -1, -1, 1, -1, 1, 1, 1, 1, -1, -1, -1, -1, 1, -1, -1, 1, 1, -1, 1, -1, -1, -1, 1, -1, 1, -1, 1, 1, -1, 1, 1, -1, -1, 1, 1, -1, -1, 1, 1, 1, 1, 1, 1, -1, 1, -1, 1, -1, -1, 1, -1, -1, 1, -1, -1, 1, -1, 1, -1, 1, 1, 1, -1, 1, 1, -1, 1, -1, 1, -1, -1, 1, -1, -1, 1, -1, -1, -1, -1, 1, -1, -1, 1, 1, -1, -1, 1, -1, -1, 1, -1, -1, 1, 1, 1, -1, 1, 1, -1, 1, 1, -1, -1, -1, 1, 1, -1, -1, 1, -1, -1, 1, 1, 1, -1, 1, 1, 1, -1, 1, 1, 1, 1, 1, -1, -1, 1, 1, 1, -1, -1, 1, 1, 1, 1, -1, 1, 1, 1, -1, -1, 1, 1, -1, 1, -1, -1, -1, 1, 1, -1, 1, 1, 1, -1, 1, -1, -1, 1, 1, 1, -1, -1, 1, 1, -1, 1, -1, 1, -1, -1, 1, -1, 1, -1, 1, -1, 1, 1, 1, 1, 1, 1, 1, -1, 1, 1, -1, 1, 1, 1, -1, -1, 1, -1, -1, -1, 1, -1, -1, -1, -1, 1, -1, 1, -1, 1, -1, 1, -1, 1, 1, 1, -1, -1, 1, 1, 1, -1, 1, -1, -1, -1, 1, -1, -1, 1, 1, 1, -1, 1, -1, 1, -1, 1, 1, -1, -1, 1, 1, -1, 1, 1, -1, 1, 1, -1, 1, 1, -1, 1, -1, 1, -1, -1, 1, 1, 1, -1, 1, -1, 1, -1, 1, 1, -1, -1, 1, -1, -1, 1, -1, 1, -1, 1, 1, -1
BQP_DATA, 2897, 13437, -6236.000000, -7990.000000, -17970.000000, -19724.000000, 4096.030479, 7515, 1750
